CPXPARAM_Read_DataCheck                          1
Found incumbent of value 0.000000 after 0.00 sec. (1.31 ticks)
Tried aggregator 1 time.
MIP Presolve modified 1 coefficients.
Reduced MIP has 10017 rows, 50005 columns, and 250017 nonzeros.
Reduced MIP has 50005 binaries, 0 generals, 0 SOSs, and 0 indicators.
Presolve time = 0.09 sec. (87.84 ticks)
Probing time = 0.11 sec. (35.80 ticks)
Tried aggregator 1 time.
Reduced MIP has 10017 rows, 50005 columns, and 250017 nonzeros.
Reduced MIP has 50005 binaries, 0 generals, 0 SOSs, and 0 indicators.
Presolve time = 0.16 sec. (109.45 ticks)
Probing time = 0.06 sec. (32.71 ticks)
Clique table members: 175064.
MIP emphasis: balance optimality and feasibility.
MIP search method: dynamic search.
Parallel mode: deterministic, using up to 4 threads.
Root relaxation solution time = 0.70 sec. (728.81 ticks)

        Nodes                                         Cuts/
   Node  Left     Objective  IInf  Best Integer    Best Bound    ItCnt     Gap

*     0+    0                            0.0000   309577.0000              --- 
      0     0   163809.1453     5        0.0000   163809.1453       15     --- 
*     0+    0                        68990.0000   163809.1453           137.44%
*     0+    0                        95347.0000   163809.1453            71.80%
      0     0        cutoff          95347.0000    95347.0000       20    0.00%
Elapsed time = 29.69 sec. (16818.20 ticks, tree = 0.01 MB, solutions = 3)

Clique cuts applied:  2604

Root node processing (before b&c):
  Real time             =   29.70 sec. (16821.77 ticks)
Parallel b&c, 4 threads:
  Real time             =    0.00 sec. (0.00 ticks)
  Sync time (average)   =    0.00 sec.
  Wait time (average)   =    0.00 sec.
                          ------------
Total (root+branch&cut) =   29.70 sec. (16821.77 ticks)
